unsat
( c0
  c1
  c10
  c100
  c1005
  c101
  c102
  c103
  c104
  c1040
  c1053
  c11
  c1117
  c1121
  c12
  c13
  c1381
  c14
  c15
  c1532
  c1561
  c16
  c168
  c169
  c17
  c170
  c171
  c172
  c1725
  c173
  c174
  c175
  c1752
  c1757
  c176
  c1762
  c177
  c178
  c179
  c18
  c180
  c1808
  c181
  c182
  c183
  c184
  c185
  c186
  c187
  c1878
  c188
  c19
  c1947
  c1955
  c2
  c20
  c2068
  c2071
  c2357
  c2374
  c252
  c253
  c254
  c255
  c256
  c257
  c2572
  c258
  c259
  c260
  c261
  c262
  c263
  c264
  c265
  c266
  c267
  c268
  c269
  c270
  c271
  c272
  c273
  c274
  c275
  c276
  c2766
  c277
  c278
  c279
  c280
  c281
  c282
  c283
  c284
  c285
  c286
  c287
  c288
  c289
  c290
  c291
  c292
  c293
  c2971
  c3
  c336
  c337
  c338
  c339
  c340
  c341
  c342
  c343
  c344
  c345
  c346
  c347
  c348
  c349
  c350
  c351
  c352
  c353
  c354
  c355
  c356
  c3713
  c3842
  c3851
  c3855
  c3902
  c3967
  c3971
  c4
  c4002
  c4005
  c4092
  c4096
  c42
  c4220
  c43
  c435
  c44
  c45
  c46
  c47
  c48
  c49
  c5
  c50
  c51
  c52
  c53
  c54
  c55
  c56
  c57
  c58
  c585
  c59
  c6
  c60
  c61
  c611
  c62
  c622
  c63
  c64
  c647
  c65
  c66
  c664
  c67
  c68
  c69
  c7
  c70
  c71
  c72
  c73
  c74
  c75
  c76
  c77
  c775
  c78
  c79
  c8
  c80
  c81
  c815
  c82
  c83
  c84
  c85
  c86
  c87
  c88
  c89
  c9
  c90
  c91
  c92
  c93
  c94
  c95
  c96
  c97
  c98
  c99
  c997 )
